15

Ti      -0.26195285      0.91449844     -0.77283535 
Ti      -1.37555552     -1.35087560      0.79870010 
Ti       1.26263141     -1.52513711     -0.01972383 
O       -3.10383374     -1.19667128      0.36996030 
O        0.13376512     -2.39907739      1.20706247 
O        1.54884389      0.23563999      0.27225450 
O       -1.23360790      0.41918620      1.13615493 
O        3.99906222      1.16448739     -1.35781924 
O       -1.89496111      1.53080527     -1.12547268 
Ti      -3.04114858      0.76934438      0.24958307 
Ti       2.56771123      0.39902431     -1.49148097 
O        2.45126377     -1.56348098     -1.35395201 
O        0.94692776      1.34298124     -2.00796621 
O       -4.04513379      1.69441539      1.13781871 
O       -0.42462189     -1.02166324     -0.88533481 
