15
mol
Ti 0.35005118 1.67511535 -0.84266228
Ti -1.16192563 0.70546455 1.38406702
Ti 1.95052522 0.00253289 1.27959761
O -2.46243163 -0.52245218 1.16593822
O 1.87778392 -1.33757231 -0.14549871
O 0.28297205 0.21712049 2.28240742
O -0.96646262 2.26334625 0.36412071
O 1.77307593 1.6084873 0.13476088
O -0.46831828 -0.03420779 -0.28566404
Ti -2.11358211 -1.22510207 -0.60386753
Ti 0.69215219 -1.10200952 -1.43857089
O 0.78014375 0.56067722 -2.29479713
O 3.29843712 -0.02968819 2.18526985
O -0.71541587 -2.22558903 -1.49360356
O -3.11700423 -0.55612697 -1.69149858