15
mol
Ti 0.07385387 0.95121048 -1.31482737
Ti -1.30800217 -1.68983256 1.8060191
Ti 0.93577537 -1.54217227 -0.534289
O -2.49972575 -1.07780002 0.70025439
O 0.08811688 -2.42498478 0.90149933
O 1.21184931 0.22006351 0.04743449
O -0.93175778 -0.09252814 2.3691456
O 4.17430304 1.05685957 -0.53655098
O -1.25884294 1.73371334 -0.39055182
Ti -2.12466324 0.84586675 1.06963062
Ti 2.83284992 0.41518039 -1.19761241
O 2.57977542 -1.5400694 -1.22018298
O 1.57406746 1.56440536 -2.11698339
O -3.38510972 1.61796704 1.75291004
O -0.22642466 -0.82624429 -1.74033659